100
128
32
33
12
33
54
17
49
64
9
37
60
50
40
26
5
16
34
49
13
13
5
32
35
51
41
44
25
15
16
42
19
44
35
54
4
12
18
63
20
26
20
26
19
18
35
29
26
44
15
27
26
61
45
24
18
15
17
25
26
33
61
15
37
38
36
17
25
6
48
18
16
8
19
5
33
39
33
23
56
20
34
32
48
21
25
39
18
63
18
24
57
1
35
36
28
64
27
37
47
41